NAME          Slots selection
ROWS
 N  *OBJ*
 E  slot_75
 E  slot_74
 E  slot_73
 E  slot_72
 E  slot_71
 E  slot_70
 E  slot_69
 E  slot_68
 E  slot_67
 E  slot_66
 E  slot_65
 E  slot_64
 E  slot_63
 E  slot_62
 E  slot_61
 E  slot_60
 E  slot_59
 E  slot_58
 E  slot_57
 E  slot_56
 E  slot_55
 E  slot_54
 E  slot_53
 E  slot_52
 E  slot_51
 E  slot_50
 E  slot_49
 E  slot_48
 E  slot_47
 E  slot_46
 E  slot_45
 E  slot_44
 E  slot_43
 E  slot_42
 E  slot_41
 E  slot_40
 E  slot_39
 E  slot_38
 E  slot_37
 E  slot_36
 E  slot_35
 E  slot_34
 E  slot_33
 E  slot_32
 E  slot_31
 E  slot_30
 E  slot_29
 E  slot_28
 E  slot_27
 E  slot_26
 E  slot_25
 E  slot_24
 E  slot_23
 E  slot_22
 E  slot_21
 E  slot_20
 E  slot_19
 E  slot_18
 E  slot_17
 E  slot_16
 E  slot_15
 E  slot_14
 E  slot_13
 E  slot_12
 E  slot_11
 E  slot_10
 E  slot_9
 E  slot_8
 E  slot_7
 E  slot_6
 E  slot_5
 E  slot_4
 E  slot_3
 E  slot_2
 E  slot_1

COLUMNS
    WR_(0)    slot_2    1
    WR_(0)    slot_9    1
    WR_(0)    slot_13   1
    WR_(0)    slot_14   1
    WR_(0)    *OBJ*     233
    WR_(1)    slot_8    1
    WR_(1)    slot_13   1
    WR_(1)    slot_14   1
    WR_(1)    slot_28   1
    WR_(1)    *OBJ*     482
    WR_(2)    slot_9    1
    WR_(2)    *OBJ*     542
    WR_(3)    slot_12   1
    WR_(3)    *OBJ*     572
    WR_(4)    slot_13   1
    WR_(4)    *OBJ*     632
    WR_(5)    slot_15   1
    WR_(5)    *OBJ*     677
    WR_(6)    slot_20   1
    WR_(6)    *OBJ*     737
    WR_(7)    slot_31   1
    WR_(7)    *OBJ*     812
    WR_(8)    slot_32   1
    WR_(8)    *OBJ*     842
    WR_(9)    slot_31   1
    WR_(9)    slot_34   1
    WR_(9)    *OBJ*     1024
    WR_(10)   slot_39   1
    WR_(10)   slot_50   1
    WR_(10)   slot_66   1
    WR_(10)   *OBJ*     1172
    WR_(11)   slot_40   1
    WR_(11)   *OBJ*     1217
    WR_(12)   slot_40   1
    WR_(12)   slot_41   1
    WR_(12)   slot_50   1
    WR_(12)   slot_66   1
    WR_(12)   *OBJ*     1416
    WR_(13)   slot_42   1
    WR_(13)   slot_50   1
    WR_(13)   slot_66   1
    WR_(13)   *OBJ*     1562
    WR_(14)   slot_45   1
    WR_(14)   slot_64   1
    WR_(14)   slot_66   1
    WR_(14)   *OBJ*     1801
    WR_(15)   slot_46   1
    WR_(15)   *OBJ*     1831
    WR_(16)   slot_48   1
    WR_(16)   slot_50   1
    WR_(16)   slot_66   1
    WR_(16)   *OBJ*     2007
    WR_(17)   slot_47   1
    WR_(17)   slot_49   1
    WR_(17)   slot_64   1
    WR_(17)   *OBJ*     2254
    WR_(18)   slot_50   1
    WR_(18)   *OBJ*     2314
    WR_(19)   slot_55   1
    WR_(19)   slot_73   1
    WR_(19)   *OBJ*     2449
    WR_(20)   slot_57   1
    WR_(20)   *OBJ*     2539
    WR_(21)   slot_58   1
    WR_(21)   *OBJ*     2584
    WR_(22)   slot_58   1
    WR_(22)   slot_60   1
    WR_(22)   slot_62   1
    WR_(22)   slot_64   1
    WR_(22)   *OBJ*     2858
    WR_(23)   slot_62   1
    WR_(23)   *OBJ*     2888
    WR_(24)   slot_40   1
    WR_(24)   slot_50   1
    WR_(24)   slot_63   1
    WR_(24)   slot_66   1
    WR_(24)   *OBJ*     3150
    WR_(25)   slot_40   1
    WR_(25)   slot_50   1
    WR_(25)   slot_68   1
    WR_(25)   *OBJ*     3410
    WR_(26)   slot_71   1
    WR_(26)   *OBJ*     3455
    WR_(27)   slot_6    1
    WR_(27)   slot_22   1
    WR_(27)   slot_72   1
    WR_(27)   *OBJ*     3656
    WR_(28)   slot_1    1
    WR_(28)   *OBJ*     3686
    WR_(29)   slot_4    1
    WR_(29)   slot_9    1
    WR_(29)   slot_11   1
    WR_(29)   slot_18   1
    WR_(29)   slot_24   1
    WR_(29)   *OBJ*     3927
    WR_(30)   slot_5    1
    WR_(30)   slot_26   1
    WR_(30)   *OBJ*     4048
    WR_(31)   slot_9    1
    WR_(31)   slot_11   1
    WR_(31)   slot_14   1
    WR_(31)   slot_18   1
    WR_(31)   slot_24   1
    WR_(31)   *OBJ*     4271
    WR_(32)   slot_10   1
    WR_(32)   slot_16   1
    WR_(32)   slot_18   1
    WR_(32)   slot_24   1
    WR_(32)   *OBJ*     4474
    WR_(33)   slot_10   1
    WR_(33)   slot_17   1
    WR_(33)   slot_18   1
    WR_(33)   slot_24   1
    WR_(33)   *OBJ*     4683
    WR_(34)   slot_19   1
    WR_(34)   slot_31   1
    WR_(34)   *OBJ*     4809
    WR_(35)   slot_7    1
    WR_(35)   slot_11   1
    WR_(35)   slot_13   1
    WR_(35)   slot_21   1
    WR_(35)   *OBJ*     5068
    WR_(36)   slot_23   1
    WR_(36)   *OBJ*     5098
    WR_(37)   slot_25   1
    WR_(37)   slot_31   1
    WR_(37)   *OBJ*     5216
    WR_(38)   slot_27   1
    WR_(38)   slot_36   1
    WR_(38)   *OBJ*     5341
    WR_(39)   slot_9    1
    WR_(39)   slot_11   1
    WR_(39)   slot_18   1
    WR_(39)   slot_24   1
    WR_(39)   slot_28   1
    WR_(39)   *OBJ*     5560
    WR_(40)   slot_29   1
    WR_(40)   slot_31   1
    WR_(40)   *OBJ*     5680
    WR_(41)   slot_10   1
    WR_(41)   slot_18   1
    WR_(41)   slot_24   1
    WR_(41)   slot_35   1
    WR_(41)   *OBJ*     5918
    WR_(42)   slot_38   1
    WR_(42)   slot_47   1
    WR_(42)   slot_62   1
    WR_(42)   *OBJ*     6036
    WR_(43)   slot_43   1
    WR_(43)   slot_47   1
    WR_(43)   *OBJ*     6172
    WR_(44)   slot_44   1
    WR_(44)   slot_52   1
    WR_(44)   *OBJ*     6390
    WR_(45)   slot_47   1
    WR_(45)   slot_51   1
    WR_(45)   *OBJ*     6453
    WR_(46)   slot_52   1
    WR_(46)   slot_53   1
    WR_(46)   *OBJ*     6637
    WR_(47)   slot_50   1
    WR_(47)   slot_56   1
    WR_(47)   *OBJ*     6807
    WR_(48)   slot_57   1
    WR_(48)   slot_61   1
    WR_(48)   *OBJ*     7000
    WR_(49)   slot_47   1
    WR_(49)   slot_64   1
    WR_(49)   *OBJ*     7167
    WR_(50)   slot_40   1
    WR_(50)   slot_50   1
    WR_(50)   slot_66   1
    WR_(50)   *OBJ*     7333
    WR_(51)   slot_37   1
    WR_(51)   slot_69   1
    WR_(51)   *OBJ*     7477
    WR_(52)   slot_40   1
    WR_(52)   slot_50   1
    WR_(52)   slot_73   1
    WR_(52)   *OBJ*     7705
    WR_(53)   slot_74   1
    WR_(53)   *OBJ*     7765
    WR_(54)   slot_40   1
    WR_(54)   slot_50   1
    WR_(54)   slot_75   1
    WR_(54)   *OBJ*     7996
    WR_(55)   slot_3    1
    WR_(55)   *OBJ*     8026
    WR_(56)   slot_6    1
    WR_(56)   *OBJ*     8086
    WR_(57)   slot_7    1
    WR_(57)   *OBJ*     8161
    WR_(58)   slot_10   1
    WR_(58)   *OBJ*     8251
    WR_(59)   slot_11   1
    WR_(59)   *OBJ*     8281
    WR_(60)   slot_18   1
    WR_(60)   *OBJ*     8311
    WR_(61)   slot_22   1
    WR_(61)   *OBJ*     8401
    WR_(62)   slot_24   1
    WR_(62)   *OBJ*     8431
    WR_(63)   slot_26   1
    WR_(63)   *OBJ*     8461
    WR_(64)   slot_30   1
    WR_(64)   *OBJ*     8536
    WR_(65)   slot_33   1
    WR_(65)   *OBJ*     8566
    WR_(66)   slot_36   1
    WR_(66)   *OBJ*     8596
    WR_(67)   slot_37   1
    WR_(67)   *OBJ*     8671
    WR_(68)   slot_47   1
    WR_(68)   *OBJ*     8701
    WR_(69)   slot_52   1
    WR_(69)   *OBJ*     8821
    WR_(70)   slot_54   1
    WR_(70)   *OBJ*     8851
    WR_(71)   slot_59   1
    WR_(71)   *OBJ*     8881
    WR_(72)   slot_65   1
    WR_(72)   *OBJ*     8956
    WR_(73)   slot_67   1
    WR_(73)   *OBJ*     9016
    WR_(74)   slot_70   1
    WR_(74)   *OBJ*     9061
    WR_(75)   slot_1    1
    WR_(75)   *OBJ*     9091
    WR_(76)   slot_2    1
    WR_(76)   *OBJ*     9121
    WR_(77)   slot_3    1
    WR_(77)   *OBJ*     9151
    WR_(78)   slot_4    1
    WR_(78)   *OBJ*     9211
    WR_(79)   slot_5    1
    WR_(79)   *OBJ*     9301
    WR_(80)   slot_6    1
    WR_(80)   *OBJ*     9361
    WR_(81)   slot_7    1
    WR_(81)   *OBJ*     9436
    WR_(82)   slot_8    1
    WR_(82)   *OBJ*     9511
    WR_(83)   slot_9    1
    WR_(83)   *OBJ*     9571
    WR_(84)   slot_10   1
    WR_(84)   *OBJ*     9661
    WR_(85)   slot_11   1
    WR_(85)   *OBJ*     9691
    WR_(86)   slot_12   1
    WR_(86)   *OBJ*     9721
    WR_(87)   slot_13   1
    WR_(87)   *OBJ*     9781
    WR_(88)   slot_14   1
    WR_(88)   *OBJ*     9826
    WR_(89)   slot_15   1
    WR_(89)   *OBJ*     9871
    WR_(90)   slot_16   1
    WR_(90)   *OBJ*     9901
    WR_(91)   slot_17   1
    WR_(91)   *OBJ*     9931
    WR_(92)   slot_18   1
    WR_(92)   *OBJ*     9961
    WR_(93)   slot_19   1
    WR_(93)   *OBJ*     10006
    WR_(94)   slot_20   1
    WR_(94)   *OBJ*     10066
    WR_(95)   slot_21   1
    WR_(95)   *OBJ*     10126
    WR_(96)   slot_22   1
    WR_(96)   *OBJ*     10216
    WR_(97)   slot_23   1
    WR_(97)   *OBJ*     10246
    WR_(98)   slot_24   1
    WR_(98)   *OBJ*     10276
    WR_(99)   slot_25   1
    WR_(99)   *OBJ*     10306
    WR_(100)  slot_26   1
    WR_(100)  *OBJ*     10336
    WR_(101)  slot_27   1
    WR_(101)  *OBJ*     10426
    WR_(102)  slot_28   1
    WR_(102)  *OBJ*     10456
    WR_(103)  slot_29   1
    WR_(103)  *OBJ*     10486
    WR_(104)  slot_30   1
    WR_(104)  *OBJ*     10561
    WR_(105)  slot_31   1
    WR_(105)  *OBJ*     10636
    WR_(106)  slot_32   1
    WR_(106)  *OBJ*     10666
    WR_(107)  slot_33   1
    WR_(107)  *OBJ*     10696
    WR_(108)  slot_34   1
    WR_(108)  *OBJ*     10786
    WR_(109)  slot_35   1
    WR_(109)  *OBJ*     10846
    WR_(110)  slot_36   1
    WR_(110)  *OBJ*     10876
    WR_(111)  slot_37   1
    WR_(111)  *OBJ*     10951
    WR_(112)  slot_38   1
    WR_(112)  *OBJ*     10981
    WR_(113)  slot_39   1
    WR_(113)  *OBJ*     11011
    WR_(114)  slot_40   1
    WR_(114)  *OBJ*     11056
    WR_(115)  slot_41   1
    WR_(115)  *OBJ*     11086
    WR_(116)  slot_42   1
    WR_(116)  *OBJ*     11116
    WR_(117)  slot_43   1
    WR_(117)  *OBJ*     11206
    WR_(118)  slot_44   1
    WR_(118)  *OBJ*     11296
    WR_(119)  slot_45   1
    WR_(119)  *OBJ*     11356
    WR_(120)  slot_46   1
    WR_(120)  *OBJ*     11386
    WR_(121)  slot_47   1
    WR_(121)  *OBJ*     11416
    WR_(122)  slot_48   1
    WR_(122)  *OBJ*     11476
    WR_(123)  slot_49   1
    WR_(123)  *OBJ*     11536
    WR_(124)  slot_50   1
    WR_(124)  *OBJ*     11596
    WR_(125)  slot_51   1
    WR_(125)  *OBJ*     11626
    WR_(126)  slot_52   1
    WR_(126)  *OBJ*     11746
    WR_(127)  slot_53   1
    WR_(127)  *OBJ*     11806
    WR_(128)  slot_54   1
    WR_(128)  *OBJ*     11836
    WR_(129)  slot_55   1
    WR_(129)  *OBJ*     11866
    WR_(130)  slot_56   1
    WR_(130)  *OBJ*     11956
    WR_(131)  slot_57   1
    WR_(131)  *OBJ*     12046
    WR_(132)  slot_58   1
    WR_(132)  *OBJ*     12091
    WR_(133)  slot_59   1
    WR_(133)  *OBJ*     12121
    WR_(134)  slot_60   1
    WR_(134)  *OBJ*     12166
    WR_(135)  slot_61   1
    WR_(135)  *OBJ*     12256
    WR_(136)  slot_62   1
    WR_(136)  *OBJ*     12286
    WR_(137)  slot_63   1
    WR_(137)  *OBJ*     12376
    WR_(138)  slot_64   1
    WR_(138)  *OBJ*     12496
    WR_(139)  slot_65   1
    WR_(139)  *OBJ*     12571
    WR_(140)  slot_66   1
    WR_(140)  *OBJ*     12601
    WR_(141)  slot_67   1
    WR_(141)  *OBJ*     12661
    WR_(142)  slot_68   1
    WR_(142)  *OBJ*     12781
    WR_(143)  slot_69   1
    WR_(143)  *OBJ*     12841
    WR_(144)  slot_70   1
    WR_(144)  *OBJ*     12886
    WR_(145)  slot_71   1
    WR_(145)  *OBJ*     12931
    WR_(146)  slot_72   1
    WR_(146)  *OBJ*     12961
    WR_(147)  slot_73   1
    WR_(147)  *OBJ*     13051
    WR_(148)  slot_74   1
    WR_(148)  *OBJ*     13111
    WR_(149)  slot_75   1
    WR_(149)  *OBJ*     13201

RHS
    *RHS*     slot_75   1
    *RHS*     slot_74   1
    *RHS*     slot_73   1
    *RHS*     slot_72   1
    *RHS*     slot_71   1
    *RHS*     slot_70   1
    *RHS*     slot_69   1
    *RHS*     slot_68   1
    *RHS*     slot_67   1
    *RHS*     slot_66   1
    *RHS*     slot_65   1
    *RHS*     slot_64   1
    *RHS*     slot_63   1
    *RHS*     slot_62   1
    *RHS*     slot_61   1
    *RHS*     slot_60   1
    *RHS*     slot_59   1
    *RHS*     slot_58   1
    *RHS*     slot_57   1
    *RHS*     slot_56   1
    *RHS*     slot_55   1
    *RHS*     slot_54   1
    *RHS*     slot_53   1
    *RHS*     slot_52   1
    *RHS*     slot_51   1
    *RHS*     slot_50   1
    *RHS*     slot_49   1
    *RHS*     slot_48   1
    *RHS*     slot_47   1
    *RHS*     slot_46   1
    *RHS*     slot_45   1
    *RHS*     slot_44   1
    *RHS*     slot_43   1
    *RHS*     slot_42   1
    *RHS*     slot_41   1
    *RHS*     slot_40   1
    *RHS*     slot_39   1
    *RHS*     slot_38   1
    *RHS*     slot_37   1
    *RHS*     slot_36   1
    *RHS*     slot_35   1
    *RHS*     slot_34   1
    *RHS*     slot_33   1
    *RHS*     slot_32   1
    *RHS*     slot_31   1
    *RHS*     slot_30   1
    *RHS*     slot_29   1
    *RHS*     slot_28   1
    *RHS*     slot_27   1
    *RHS*     slot_26   1
    *RHS*     slot_25   1
    *RHS*     slot_24   1
    *RHS*     slot_23   1
    *RHS*     slot_22   1
    *RHS*     slot_21   1
    *RHS*     slot_20   1
    *RHS*     slot_19   1
    *RHS*     slot_18   1
    *RHS*     slot_17   1
    *RHS*     slot_16   1
    *RHS*     slot_15   1
    *RHS*     slot_14   1
    *RHS*     slot_13   1
    *RHS*     slot_12   1
    *RHS*     slot_11   1
    *RHS*     slot_10   1
    *RHS*     slot_9    1
    *RHS*     slot_8    1
    *RHS*     slot_7    1
    *RHS*     slot_6    1
    *RHS*     slot_5    1
    *RHS*     slot_4    1
    *RHS*     slot_3    1
    *RHS*     slot_2    1
    *RHS*     slot_1    1

BOUNDS
 BV *BND*     WR_(0)
 BV *BND*     WR_(1)
 BV *BND*     WR_(2)
 BV *BND*     WR_(3)
 BV *BND*     WR_(4)
 BV *BND*     WR_(5)
 BV *BND*     WR_(6)
 BV *BND*     WR_(7)
 BV *BND*     WR_(8)
 BV *BND*     WR_(9)
 BV *BND*     WR_(10)
 BV *BND*     WR_(11)
 BV *BND*     WR_(12)
 BV *BND*     WR_(13)
 BV *BND*     WR_(14)
 BV *BND*     WR_(15)
 BV *BND*     WR_(16)
 BV *BND*     WR_(17)
 BV *BND*     WR_(18)
 BV *BND*     WR_(19)
 BV *BND*     WR_(20)
 BV *BND*     WR_(21)
 BV *BND*     WR_(22)
 BV *BND*     WR_(23)
 BV *BND*     WR_(24)
 BV *BND*     WR_(25)
 BV *BND*     WR_(26)
 BV *BND*     WR_(27)
 BV *BND*     WR_(28)
 BV *BND*     WR_(29)
 BV *BND*     WR_(30)
 BV *BND*     WR_(31)
 BV *BND*     WR_(32)
 BV *BND*     WR_(33)
 BV *BND*     WR_(34)
 BV *BND*     WR_(35)
 BV *BND*     WR_(36)
 BV *BND*     WR_(37)
 BV *BND*     WR_(38)
 BV *BND*     WR_(39)
 BV *BND*     WR_(40)
 BV *BND*     WR_(41)
 BV *BND*     WR_(42)
 BV *BND*     WR_(43)
 BV *BND*     WR_(44)
 BV *BND*     WR_(45)
 BV *BND*     WR_(46)
 BV *BND*     WR_(47)
 BV *BND*     WR_(48)
 BV *BND*     WR_(49)
 BV *BND*     WR_(50)
 BV *BND*     WR_(51)
 BV *BND*     WR_(52)
 BV *BND*     WR_(53)
 BV *BND*     WR_(54)
 BV *BND*     WR_(55)
 BV *BND*     WR_(56)
 BV *BND*     WR_(57)
 BV *BND*     WR_(58)
 BV *BND*     WR_(59)
 BV *BND*     WR_(60)
 BV *BND*     WR_(61)
 BV *BND*     WR_(62)
 BV *BND*     WR_(63)
 BV *BND*     WR_(64)
 BV *BND*     WR_(65)
 BV *BND*     WR_(66)
 BV *BND*     WR_(67)
 BV *BND*     WR_(68)
 BV *BND*     WR_(69)
 BV *BND*     WR_(70)
 BV *BND*     WR_(71)
 BV *BND*     WR_(72)
 BV *BND*     WR_(73)
 BV *BND*     WR_(74)
 BV *BND*     WR_(75)
 BV *BND*     WR_(76)
 BV *BND*     WR_(77)
 BV *BND*     WR_(78)
 BV *BND*     WR_(79)
 BV *BND*     WR_(80)
 BV *BND*     WR_(81)
 BV *BND*     WR_(82)
 BV *BND*     WR_(83)
 BV *BND*     WR_(84)
 BV *BND*     WR_(85)
 BV *BND*     WR_(86)
 BV *BND*     WR_(87)
 BV *BND*     WR_(88)
 BV *BND*     WR_(89)
 BV *BND*     WR_(90)
 BV *BND*     WR_(91)
 BV *BND*     WR_(92)
 BV *BND*     WR_(93)
 BV *BND*     WR_(94)
 BV *BND*     WR_(95)
 BV *BND*     WR_(96)
 BV *BND*     WR_(97)
 BV *BND*     WR_(98)
 BV *BND*     WR_(99)
 BV *BND*     WR_(100)
 BV *BND*     WR_(101)
 BV *BND*     WR_(102)
 BV *BND*     WR_(103)
 BV *BND*     WR_(104)
 BV *BND*     WR_(105)
 BV *BND*     WR_(106)
 BV *BND*     WR_(107)
 BV *BND*     WR_(108)
 BV *BND*     WR_(109)
 BV *BND*     WR_(110)
 BV *BND*     WR_(111)
 BV *BND*     WR_(112)
 BV *BND*     WR_(113)
 BV *BND*     WR_(114)
 BV *BND*     WR_(115)
 BV *BND*     WR_(116)
 BV *BND*     WR_(117)
 BV *BND*     WR_(118)
 BV *BND*     WR_(119)
 BV *BND*     WR_(120)
 BV *BND*     WR_(121)
 BV *BND*     WR_(122)
 BV *BND*     WR_(123)
 BV *BND*     WR_(124)
 BV *BND*     WR_(125)
 BV *BND*     WR_(126)
 BV *BND*     WR_(127)
 BV *BND*     WR_(128)
 BV *BND*     WR_(129)
 BV *BND*     WR_(130)
 BV *BND*     WR_(131)
 BV *BND*     WR_(132)
 BV *BND*     WR_(133)
 BV *BND*     WR_(134)
 BV *BND*     WR_(135)
 BV *BND*     WR_(136)
 BV *BND*     WR_(137)
 BV *BND*     WR_(138)
 BV *BND*     WR_(139)
 BV *BND*     WR_(140)
 BV *BND*     WR_(141)
 BV *BND*     WR_(142)
 BV *BND*     WR_(143)
 BV *BND*     WR_(144)
 BV *BND*     WR_(145)
 BV *BND*     WR_(146)
 BV *BND*     WR_(147)
 BV *BND*     WR_(148)
 BV *BND*     WR_(149)

ENDATA
